
  22   10
  10   10   10   10   10   10   10   10   10   10

   0   0   0   0   0   0   0   0   0   0   0   7 2 3 5 7 8 12 13 
   4  10  10  10  10  10  10  10  10  10  10   2 15 4 
   4  10  10  10  10  10  10  10  10  10  10   7 21 20 19 17 16 15 9 
   6  10  10  10  10  10  10  10  10  10  10   3 18 11 6 
   2  10  10  10  10  10  10  10  10  10  10   3 16 15 10 
   7  10  10  10  10  10  10  10  10  10  10   2 17 9 
   8  10  10  10  10  10  10  10  10  10  10   3 18 15 14 
   5  10  10  10  10  10  10  10  10  10  10   2 17 15 
   5  10  10  10  10  10  10  10  10  10  10   1 10 
   4  10  10  10  10  10  10  10  10  10  10   1 14 
   1  10  10  10  10  10  10  10  10  10  10   1 16 
   5  10  10  10  10  10  10  10  10  10  10   1 15 
   7  10  10  10  10  10  10  10  10  10  10   1 14 
   3  10  10  10  10  10  10  10  10  10  10   1 22
   4  10  10  10  10  10  10  10  10  10  10   1 22
   9  10  10  10  10  10  10  10  10  10  10   1 22
   9  10  10  10  10  10  10  10  10  10  10   1 22
  10  10  10  10  10  10  10  10  10  10  10   1 22
  10  10  10  10  10  10  10  10  10  10  10   1 22
   7  10  10  10  10  10  10  10  10  10  10   1 22
   6  10  10  10  10  10  10  10  10  10  10   1 22
   0   0   0   0   0   0   0   0   0   0   0   0 
